(declare-const x0 Bool)
(declare-const x1 Bool)
(declare-const x2 Bool)
(declare-const x3 Bool)
(declare-const x4 Bool)
(declare-const x5 Bool)
(declare-const x6 Bool)
(declare-const x7 Bool)
(declare-const x8 Bool)
(declare-const x9 Bool)
(declare-const x10 Bool)
(declare-const x11 Bool)
(declare-const x12 Bool)
(declare-const x13 Bool)
(declare-const x14 Bool)
(declare-const x15 Bool)
(declare-const x16 Bool)
(declare-const x17 Bool)
(declare-const x18 Bool)
(declare-const x19 Bool)
(declare-const x20 Bool)
(declare-const x21 Bool)
(assert (or false x20))
(assert (or (= (and false x12) (or x14 (or x11 true))) (and true (= false (or x12 x3)))))
(assert (and (and (= (or true true) (and x10 x2)) (= (and false (or x8 x18)) x4)) (and (= x6 x14) (and x5 false))))
(assert x2)
(assert (= (and x17 true) (or false (or x14 false))))
(assert (or x7 true))
(assert (and x14 x0))
(assert (and (or (and false x6) x1) (and x14 (and (= (or (= x1 false) true) (or (and false x3) (or x17 x18))) (= x12 false)))))
(assert (and true false))
(check-sat)
